18
energy=-235.71154024313333
C      1.277000    -0.720000     0.236000
C      0.012000    -1.465000    -0.235000
C     -1.265000    -0.740000     0.236000
C     -1.277000     0.720000    -0.236000
C     -0.012000     1.465000     0.235000
C      1.265000     0.740000    -0.236000
H      2.184000    -1.235000    -0.110000
H      1.326000    -0.747000     1.332000
H      0.012000    -1.524000    -1.331000
H      0.020000    -2.507000     0.113000
H     -2.164000    -1.270000    -0.109000
H     -1.314000    -0.768000     1.332000
H     -2.184000     1.235000     0.109000
H     -1.326000     0.747000    -1.332000
H     -0.012000     1.524000     1.331000
H     -0.020000     2.507000    -0.113000
H      2.164000     1.270000     0.110000
H      1.314000     0.768000    -1.332000
18
energy=-235.70111020539855
C      1.241000    -0.664000     0.366000
C      0.012000    -1.532000    -0.021000
C     -1.231000    -0.674000    -0.385000
C     -1.241000     0.654000     0.385000
C     -0.012000     1.532000     0.021000
C      1.230000     0.684000    -0.366000
H      2.177000    -1.206000     0.174000
H      1.231000    -0.480000     1.448000
H      0.274000    -2.185000    -0.864000
H     -0.239000    -2.212000     0.803000
H     -1.223000    -0.459000    -1.461000
H     -2.158000    -1.235000    -0.208000
H     -1.230000     0.439000     1.461000
H     -2.177000     1.201000     0.208000
H      0.239000     2.189000     0.864000
H     -0.274000     2.208000    -0.803000
H      2.158000     1.240000    -0.174000
H      1.223000     0.499000    -1.448000
18
energy=-235.7011101526169
C      1.210000    -0.717000     0.368000
C      0.042000    -1.407000    -0.366000
C     -1.324000    -0.774000     0.019000
C     -1.201000     0.723000     0.387000
C     -0.051000     1.401000    -0.385000
C      1.324000     0.774000    -0.023000
H      2.154000    -1.245000     0.177000
H      1.045000    -0.801000     1.449000
H      0.198000    -1.308000    -1.448000
H      0.042000    -2.487000    -0.170000
H     -2.036000    -0.894000    -0.807000
H     -1.762000    -1.329000     0.858000
H     -1.010000     0.821000     1.463000
H     -2.150000     1.248000     0.212000
H     -0.046000     2.484000    -0.203000
H     -0.233000     1.288000    -1.460000
H      1.782000     1.341000     0.797000
H      2.015000     0.882000    -0.868000