18
Frame 1: Molecule 1
C 1.277 -0.720 0.236
C 0.012 -1.465 -0.235
C -1.265 -0.740 0.236
C -1.277 0.720 -0.236
C -0.012 1.465 0.235
C 1.265 0.740 -0.236
H 2.184 -1.235 -0.110
H 1.326 -0.747 1.332
H 0.012 -1.524 -1.331
H 0.020 -2.507 0.113
H -2.164 -1.270 -0.109
H -1.314 -0.768 1.332
H -2.184 1.235 0.109
H -1.326 0.747 -1.332
H -0.012 1.524 1.331
H -0.020 2.507 -0.113
H 2.164 1.270 0.110
H 1.314 0.768 -1.332
18
Frame 2: Molecule 2
C 1.241 -0.664 0.366
C 0.012 -1.532 -0.021
C -1.231 -0.674 -0.385
C -1.241 0.654 0.385
C -0.012 1.532 0.021
C 1.230 0.684 -0.366
H 2.177 -1.206 0.174
H 1.231 -0.480 1.448
H 0.274 -2.185 -0.864
H -0.239 -2.212 0.803
H -1.223 -0.459 -1.461
H -2.158 -1.235 -0.208
H -1.230 0.439 1.461
H -2.177 1.201 0.208
H 0.239 2.189 0.864
H -0.274 2.208 -0.803
H 2.158 1.240 -0.174
H 1.223 0.499 -1.448
18
Frame 3: Molecule 3
C 1.210 -0.717 0.368
C 0.042 -1.407 -0.366
C -1.324 -0.774 0.019
C -1.201 0.723 0.387
C -0.051 1.401 -0.385
C 1.324 0.774 -0.023
H 2.154 -1.245 0.177
H 1.045 -0.801 1.449
H 0.198 -1.308 -1.448
H 0.042 -2.487 -0.170
H -2.036 -0.894 -0.807
H -1.762 -1.329 0.858
H -1.010 0.821 1.463
H -2.150 1.248 0.212
H -0.046 2.484 -0.203
H -0.233 1.288 -1.460
H 1.782 1.341 0.797
H 2.015 0.882 -0.868