18
Cyclohexane boat conformer, C6H12
C      1.2670     0.7320     0.0000
C      0.0000     1.4640     0.6000
C     -1.2670     0.7320     0.0000
C     -1.2670    -0.7320     0.0000
C      0.0000    -1.4640     0.6000
C      1.2670    -0.7320     0.0000
H      2.1580     1.2470     0.3600
H      1.2670     0.7320    -1.0900
H      0.0000     1.4640     1.6900
H      0.0000     2.4930     0.2400
H     -2.1580     1.2470     0.3600
H     -1.2670     0.7320    -1.0900
H     -2.1580    -1.2470     0.3600
H     -1.2670    -0.7320    -1.0900
H      0.0000    -1.4640     1.6900
H      0.0000    -2.4930     0.2400
H      2.1580    -1.2470     0.3600
H      1.2670    -0.7320    -1.0900
